data/lp_files/pEFS/85_8.lp
\ Model foo
\ LP format - for model browsing. Use MPS format to capture full model detail.
Minimize
  z
Subject To
 allocateEach[1]: x[1,1] + x[2,1] + x[3,1] + x[4,1] + x[5,1] = 1
 allocateEach[2]: x[1,2] + x[2,2] + x[3,2] + x[4,2] + x[5,2] = 1
 allocateEach[3]: x[1,3] + x[2,3] + x[3,3] + x[4,3] + x[5,3] = 1
 allocateEach[4]: x[1,4] + x[2,4] + x[3,4] + x[4,4] + x[5,4] = 1
 allocateEach[5]: x[1,5] + x[2,5] + x[3,5] + x[4,5] + x[5,5] = 1
 allocateAllCash: cashProportion[1] + cashProportion[2] + cashProportion[3]
   + cashProportion[4] + cashProportion[5] = 1
 findWorstP[1,2]: z + 0.2250731487733514 cashProportion[1]
   - 0.2250731487733514 cashProportion[2] + 0.2649110961062345 x[1,1]
   + 0.0432140445644835 x[1,2] + 0.2444013054242629 x[1,3]
   + 0.2082207967589467 x[1,4] + 0.0141796083727211 x[1,5]
   - 0.2649110961062345 x[2,1] - 0.0432140445644835 x[2,2]
   - 0.2444013054242629 x[2,3] - 0.2082207967589467 x[2,4]
   - 0.0141796083727211 x[2,5] >= 0
 findWorstP[1,3]: z + 0.2250731487733514 cashProportion[1]
   - 0.2250731487733514 cashProportion[3] + 0.2649110961062345 x[1,1]
   + 0.0432140445644835 x[1,2] + 0.2444013054242629 x[1,3]
   + 0.2082207967589467 x[1,4] + 0.0141796083727211 x[1,5]
   - 0.2649110961062345 x[3,1] - 0.0432140445644835 x[3,2]
   - 0.2444013054242629 x[3,3] - 0.2082207967589467 x[3,4]
   - 0.0141796083727211 x[3,5] >= 0
 findWorstP[1,4]: z + 0.2250731487733514 cashProportion[1]
   - 0.2250731487733514 cashProportion[4] + 0.2649110961062345 x[1,1]
   + 0.0432140445644835 x[1,2] + 0.2444013054242629 x[1,3]
   + 0.2082207967589467 x[1,4] + 0.0141796083727211 x[1,5]
   - 0.2649110961062345 x[4,1] - 0.0432140445644835 x[4,2]
   - 0.2444013054242629 x[4,3] - 0.2082207967589467 x[4,4]
   - 0.0141796083727211 x[4,5] >= 0
 findWorstP[1,5]: z + 0.2250731487733514 cashProportion[1]
   - 0.2250731487733514 cashProportion[5] + 0.2649110961062345 x[1,1]
   + 0.0432140445644835 x[1,2] + 0.2444013054242629 x[1,3]
   + 0.2082207967589467 x[1,4] + 0.0141796083727211 x[1,5]
   - 0.2649110961062345 x[5,1] - 0.0432140445644835 x[5,2]
   - 0.2444013054242629 x[5,3] - 0.2082207967589467 x[5,4]
   - 0.0141796083727211 x[5,5] >= 0
 findWorstP[2,1]: z - 0.2495165616617803 cashProportion[1]
   + 0.2495165616617803 cashProportion[2] - 0.0291622481442206 x[1,1]
   - 0.1698895889214646 x[1,2] - 0.2526355186825525 x[1,3]
   - 0.1569459172852598 x[1,4] - 0.1418501653047221 x[1,5]
   + 0.0291622481442206 x[2,1] + 0.1698895889214646 x[2,2]
   + 0.2526355186825525 x[2,3] + 0.1569459172852598 x[2,4]
   + 0.1418501653047221 x[2,5] >= 0
 findWorstP[2,3]: z + 0.2495165616617803 cashProportion[2]
   - 0.2495165616617803 cashProportion[3] + 0.0291622481442206 x[2,1]
   + 0.1698895889214646 x[2,2] + 0.2526355186825525 x[2,3]
   + 0.1569459172852598 x[2,4] + 0.1418501653047221 x[2,5]
   - 0.0291622481442206 x[3,1] - 0.1698895889214646 x[3,2]
   - 0.2526355186825525 x[3,3] - 0.1569459172852598 x[3,4]
   - 0.1418501653047221 x[3,5] >= 0
 findWorstP[2,4]: z + 0.2495165616617803 cashProportion[2]
   - 0.2495165616617803 cashProportion[4] + 0.0291622481442206 x[2,1]
   + 0.1698895889214646 x[2,2] + 0.2526355186825525 x[2,3]
   + 0.1569459172852598 x[2,4] + 0.1418501653047221 x[2,5]
   - 0.0291622481442206 x[4,1] - 0.1698895889214646 x[4,2]
   - 0.2526355186825525 x[4,3] - 0.1569459172852598 x[4,4]
   - 0.1418501653047221 x[4,5] >= 0
 findWorstP[2,5]: z + 0.2495165616617803 cashProportion[2]
   - 0.2495165616617803 cashProportion[5] + 0.0291622481442206 x[2,1]
   + 0.1698895889214646 x[2,2] + 0.2526355186825525 x[2,3]
   + 0.1569459172852598 x[2,4] + 0.1418501653047221 x[2,5]
   - 0.0291622481442206 x[5,1] - 0.1698895889214646 x[5,2]
   - 0.2526355186825525 x[5,3] - 0.1569459172852598 x[5,4]
   - 0.1418501653047221 x[5,5] >= 0
 findWorstP[3,1]: z - 0.202552157180474 cashProportion[1]
   + 0.202552157180474 cashProportion[3] - 0.18589224225238 x[1,1]
   - 0.2211109985821349 x[1,2] - 0.1486732833704679 x[1,3]
   - 0.0583856593072716 x[1,4] - 0.1833856593072716 x[1,5]
   + 0.18589224225238 x[3,1] + 0.2211109985821349 x[3,2]
   + 0.1486732833704679 x[3,3] + 0.0583856593072716 x[3,4]
   + 0.1833856593072716 x[3,5] >= 0
 findWorstP[3,2]: z - 0.202552157180474 cashProportion[2]
   + 0.202552157180474 cashProportion[3] - 0.18589224225238 x[2,1]
   - 0.2211109985821349 x[2,2] - 0.1486732833704679 x[2,3]
   - 0.0583856593072716 x[2,4] - 0.1833856593072716 x[2,5]
   + 0.18589224225238 x[3,1] + 0.2211109985821349 x[3,2]
   + 0.1486732833704679 x[3,3] + 0.0583856593072716 x[3,4]
   + 0.1833856593072716 x[3,5] >= 0
 findWorstP[3,4]: z + 0.202552157180474 cashProportion[3]
   - 0.202552157180474 cashProportion[4] + 0.18589224225238 x[3,1]
   + 0.2211109985821349 x[3,2] + 0.1486732833704679 x[3,3]
   + 0.0583856593072716 x[3,4] + 0.1833856593072716 x[3,5]
   - 0.18589224225238 x[4,1] - 0.2211109985821349 x[4,2]
   - 0.1486732833704679 x[4,3] - 0.0583856593072716 x[4,4]
   - 0.1833856593072716 x[4,5] >= 0
 findWorstP[3,5]: z + 0.202552157180474 cashProportion[3]
   - 0.202552157180474 cashProportion[5] + 0.18589224225238 x[3,1]
   + 0.2211109985821349 x[3,2] + 0.1486732833704679 x[3,3]
   + 0.0583856593072716 x[3,4] + 0.1833856593072716 x[3,5]
   - 0.18589224225238 x[5,1] - 0.2211109985821349 x[5,2]
   - 0.1486732833704679 x[5,3] - 0.0583856593072716 x[5,4]
   - 0.1833856593072716 x[5,5] >= 0
 findWorstP[4,1]: z - 0.1848856020337417 cashProportion[1]
   + 0.1848856020337417 cashProportion[4] - 0.1896232955858562 x[1,1]
   - 0.2263693089900624 x[1,2] - 0.1978969262768662 x[1,3]
   - 0.07621908943841 x[1,4] - 0.1250057776750636 x[1,5]
   + 0.1896232955858562 x[4,1] + 0.2263693089900624 x[4,2]
   + 0.1978969262768662 x[4,3] + 0.07621908943841 x[4,4]
   + 0.1250057776750636 x[4,5] >= 0
 findWorstP[4,2]: z - 0.1848856020337417 cashProportion[2]
   + 0.1848856020337417 cashProportion[4] - 0.1896232955858562 x[2,1]
   - 0.2263693089900624 x[2,2] - 0.1978969262768662 x[2,3]
   - 0.07621908943841 x[2,4] - 0.1250057776750636 x[2,5]
   + 0.1896232955858562 x[4,1] + 0.2263693089900624 x[4,2]
   + 0.1978969262768662 x[4,3] + 0.07621908943841 x[4,4]
   + 0.1250057776750636 x[4,5] >= 0
 findWorstP[4,3]: z - 0.1848856020337417 cashProportion[3]
   + 0.1848856020337417 cashProportion[4] - 0.1896232955858562 x[3,1]
   - 0.2263693089900624 x[3,2] - 0.1978969262768662 x[3,3]
   - 0.07621908943841 x[3,4] - 0.1250057776750636 x[3,5]
   + 0.1896232955858562 x[4,1] + 0.2263693089900624 x[4,2]
   + 0.1978969262768662 x[4,3] + 0.07621908943841 x[4,4]
   + 0.1250057776750636 x[4,5] >= 0
 findWorstP[4,5]: z + 0.1848856020337417 cashProportion[4]
   - 0.1848856020337417 cashProportion[5] + 0.1896232955858562 x[4,1]
   + 0.2263693089900624 x[4,2] + 0.1978969262768662 x[4,3]
   + 0.07621908943841 x[4,4] + 0.1250057776750636 x[4,5]
   - 0.1896232955858562 x[5,1] - 0.2263693089900624 x[5,2]
   - 0.1978969262768662 x[5,3] - 0.07621908943841 x[5,4]
   - 0.1250057776750636 x[5,5] >= 0
 findWorstP[5,1]: z - 0.1788428865241886 cashProportion[1]
   + 0.1788428865241886 cashProportion[5] - 0.2023607261021193 x[1,1]
   - 0.0698605025485111 x[1,2] - 0.1986497362067424 x[1,3]
   - 0.2005722972368774 x[1,4] - 0.1497138513815613 x[1,5]
   + 0.2023607261021193 x[5,1] + 0.0698605025485111 x[5,2]
   + 0.1986497362067424 x[5,3] + 0.2005722972368774 x[5,4]
   + 0.1497138513815613 x[5,5] >= 0
 findWorstP[5,2]: z - 0.1788428865241886 cashProportion[2]
   + 0.1788428865241886 cashProportion[5] - 0.2023607261021193 x[2,1]
   - 0.0698605025485111 x[2,2] - 0.1986497362067424 x[2,3]
   - 0.2005722972368774 x[2,4] - 0.1497138513815613 x[2,5]
   + 0.2023607261021193 x[5,1] + 0.0698605025485111 x[5,2]
   + 0.1986497362067424 x[5,3] + 0.2005722972368774 x[5,4]
   + 0.1497138513815613 x[5,5] >= 0
 findWorstP[5,3]: z - 0.1788428865241886 cashProportion[3]
   + 0.1788428865241886 cashProportion[5] - 0.2023607261021193 x[3,1]
   - 0.0698605025485111 x[3,2] - 0.1986497362067424 x[3,3]
   - 0.2005722972368774 x[3,4] - 0.1497138513815613 x[3,5]
   + 0.2023607261021193 x[5,1] + 0.0698605025485111 x[5,2]
   + 0.1986497362067424 x[5,3] + 0.2005722972368774 x[5,4]
   + 0.1497138513815613 x[5,5] >= 0
 findWorstP[5,4]: z - 0.1788428865241886 cashProportion[4]
   + 0.1788428865241886 cashProportion[5] - 0.2023607261021193 x[4,1]
   - 0.0698605025485111 x[4,2] - 0.1986497362067424 x[4,3]
   - 0.2005722972368774 x[4,4] - 0.1497138513815613 x[4,5]
   + 0.2023607261021193 x[5,1] + 0.0698605025485111 x[5,2]
   + 0.1986497362067424 x[5,3] + 0.2005722972368774 x[5,4]
   + 0.1497138513815613 x[5,5] >= 0
Bounds
 z <= 1
 -infinity <= cashProportion[1] <= 1
 -infinity <= cashProportion[2] <= 1
 -infinity <= cashProportion[3] <= 1
 -infinity <= cashProportion[4] <= 1
 -infinity <= cashProportion[5] <= 1
Binaries
 x[1,1] x[1,2] x[1,3] x[1,4] x[1,5] x[2,1] x[2,2] x[2,3] x[2,4] x[2,5]
 x[3,1] x[3,2] x[3,3] x[3,4] x[3,5] x[4,1] x[4,2] x[4,3] x[4,4] x[4,5]
 x[5,1] x[5,2] x[5,3] x[5,4] x[5,5]
End
