data/mps_files/q3/85_8.mps
NAME foo
ROWS
 N  OBJ
 E  allocateEach[1]
 E  allocateEach[2]
 E  allocateEach[3]
 E  allocateEach[4]
 E  allocateEach[5]
 E  allocateAllCash
 G  findWorstP[1,2]
 G  findWorstP[1,3]
 G  findWorstP[1,4]
 G  findWorstP[1,5]
 G  findWorstP[2,1]
 G  findWorstP[2,3]
 G  findWorstP[2,4]
 G  findWorstP[2,5]
 G  findWorstP[3,1]
 G  findWorstP[3,2]
 G  findWorstP[3,4]
 G  findWorstP[3,5]
 G  findWorstP[4,1]
 G  findWorstP[4,2]
 G  findWorstP[4,3]
 G  findWorstP[4,5]
 G  findWorstP[5,1]
 G  findWorstP[5,2]
 G  findWorstP[5,3]
 G  findWorstP[5,4]
COLUMNS
    z         OBJ       1
    z         findWorstP[1,2]  1
    z         findWorstP[1,3]  1
    z         findWorstP[1,4]  1
    z         findWorstP[1,5]  1
    z         findWorstP[2,1]  1
    z         findWorstP[2,3]  1
    z         findWorstP[2,4]  1
    z         findWorstP[2,5]  1
    z         findWorstP[3,1]  1
    z         findWorstP[3,2]  1
    z         findWorstP[3,4]  1
    z         findWorstP[3,5]  1
    z         findWorstP[4,1]  1
    z         findWorstP[4,2]  1
    z         findWorstP[4,3]  1
    z         findWorstP[4,5]  1
    z         findWorstP[5,1]  1
    z         findWorstP[5,2]  1
    z         findWorstP[5,3]  1
    z         findWorstP[5,4]  1
    cashProportion[1]  allocateAllCash  1
    cashProportion[1]  findWorstP[1,2]  2.2507314877335141e-01
    cashProportion[1]  findWorstP[1,3]  2.2507314877335141e-01
    cashProportion[1]  findWorstP[1,4]  2.2507314877335141e-01
    cashProportion[1]  findWorstP[1,5]  2.2507314877335141e-01
    cashProportion[1]  findWorstP[2,1]  -2.4951656166178032e-01
    cashProportion[1]  findWorstP[3,1]  -2.0255215718047398e-01
    cashProportion[1]  findWorstP[4,1]  -1.8488560203374166e-01
    cashProportion[1]  findWorstP[5,1]  -1.7884288652418856e-01
    cashProportion[2]  allocateAllCash  1
    cashProportion[2]  findWorstP[1,2]  -2.2507314877335141e-01
    cashProportion[2]  findWorstP[2,1]  2.4951656166178032e-01
    cashProportion[2]  findWorstP[2,3]  2.4951656166178032e-01
    cashProportion[2]  findWorstP[2,4]  2.4951656166178032e-01
    cashProportion[2]  findWorstP[2,5]  2.4951656166178032e-01
    cashProportion[2]  findWorstP[3,2]  -2.0255215718047398e-01
    cashProportion[2]  findWorstP[4,2]  -1.8488560203374166e-01
    cashProportion[2]  findWorstP[5,2]  -1.7884288652418856e-01
    cashProportion[3]  allocateAllCash  1
    cashProportion[3]  findWorstP[1,3]  -2.2507314877335141e-01
    cashProportion[3]  findWorstP[2,3]  -2.4951656166178032e-01
    cashProportion[3]  findWorstP[3,1]  2.0255215718047398e-01
    cashProportion[3]  findWorstP[3,2]  2.0255215718047398e-01
    cashProportion[3]  findWorstP[3,4]  2.0255215718047398e-01
    cashProportion[3]  findWorstP[3,5]  2.0255215718047398e-01
    cashProportion[3]  findWorstP[4,3]  -1.8488560203374166e-01
    cashProportion[3]  findWorstP[5,3]  -1.7884288652418856e-01
    cashProportion[4]  allocateAllCash  1
    cashProportion[4]  findWorstP[1,4]  -2.2507314877335141e-01
    cashProportion[4]  findWorstP[2,4]  -2.4951656166178032e-01
    cashProportion[4]  findWorstP[3,4]  -2.0255215718047398e-01
    cashProportion[4]  findWorstP[4,1]  1.8488560203374166e-01
    cashProportion[4]  findWorstP[4,2]  1.8488560203374166e-01
    cashProportion[4]  findWorstP[4,3]  1.8488560203374166e-01
    cashProportion[4]  findWorstP[4,5]  1.8488560203374166e-01
    cashProportion[4]  findWorstP[5,4]  -1.7884288652418856e-01
    cashProportion[5]  allocateAllCash  1
    cashProportion[5]  findWorstP[1,5]  -2.2507314877335141e-01
    cashProportion[5]  findWorstP[2,5]  -2.4951656166178032e-01
    cashProportion[5]  findWorstP[3,5]  -2.0255215718047398e-01
    cashProportion[5]  findWorstP[4,5]  -1.8488560203374166e-01
    cashProportion[5]  findWorstP[5,1]  1.7884288652418856e-01
    cashProportion[5]  findWorstP[5,2]  1.7884288652418856e-01
    cashProportion[5]  findWorstP[5,3]  1.7884288652418856e-01
    cashProportion[5]  findWorstP[5,4]  1.7884288652418856e-01
    MARKER    'MARKER'                 'INTORG'
    x[1,1]    allocateEach[1]  1
    x[1,1]    findWorstP[1,2]  2.6491109610623453e-01
    x[1,1]    findWorstP[1,3]  2.6491109610623453e-01
    x[1,1]    findWorstP[1,4]  2.6491109610623453e-01
    x[1,1]    findWorstP[1,5]  2.6491109610623453e-01
    x[1,1]    findWorstP[2,1]  -2.9162248144220568e-02
    x[1,1]    findWorstP[3,1]  -1.8589224225237996e-01
    x[1,1]    findWorstP[4,1]  -1.8962329558585625e-01
    x[1,1]    findWorstP[5,1]  -2.0236072610211930e-01
    x[1,2]    allocateEach[2]  1
    x[1,2]    findWorstP[1,2]  4.3214044564483460e-02
    x[1,2]    findWorstP[1,3]  4.3214044564483460e-02
    x[1,2]    findWorstP[1,4]  4.3214044564483460e-02
    x[1,2]    findWorstP[1,5]  4.3214044564483460e-02
    x[1,2]    findWorstP[2,1]  -1.6988958892146463e-01
    x[1,2]    findWorstP[3,1]  -2.2111099858213487e-01
    x[1,2]    findWorstP[4,1]  -2.2636930899006241e-01
    x[1,2]    findWorstP[5,1]  -6.9860502548511144e-02
    x[1,3]    allocateEach[3]  1
    x[1,3]    findWorstP[1,2]  2.4440130542426292e-01
    x[1,3]    findWorstP[1,3]  2.4440130542426292e-01
    x[1,3]    findWorstP[1,4]  2.4440130542426292e-01
    x[1,3]    findWorstP[1,5]  2.4440130542426292e-01
    x[1,3]    findWorstP[2,1]  -2.5263551868255252e-01
    x[1,3]    findWorstP[3,1]  -1.4867328337046790e-01
    x[1,3]    findWorstP[4,1]  -1.9789692627686617e-01
    x[1,3]    findWorstP[5,1]  -1.9864973620674239e-01
    x[1,4]    allocateEach[4]  1
    x[1,4]    findWorstP[1,2]  2.0822079675894667e-01
    x[1,4]    findWorstP[1,3]  2.0822079675894667e-01
    x[1,4]    findWorstP[1,4]  2.0822079675894667e-01
    x[1,4]    findWorstP[1,5]  2.0822079675894667e-01
    x[1,4]    findWorstP[2,1]  -1.5694591728525978e-01
    x[1,4]    findWorstP[3,1]  -5.8385659307271617e-02
    x[1,4]    findWorstP[4,1]  -7.6219089438409979e-02
    x[1,4]    findWorstP[5,1]  -2.0057229723687742e-01
    x[1,5]    allocateEach[5]  1
    x[1,5]    findWorstP[1,2]  1.4179608372721135e-02
    x[1,5]    findWorstP[1,3]  1.4179608372721135e-02
    x[1,5]    findWorstP[1,4]  1.4179608372721135e-02
    x[1,5]    findWorstP[1,5]  1.4179608372721135e-02
    x[1,5]    findWorstP[2,1]  -1.4185016530472208e-01
    x[1,5]    findWorstP[3,1]  -1.8338565930727160e-01
    x[1,5]    findWorstP[4,1]  -1.2500577767506357e-01
    x[1,5]    findWorstP[5,1]  -1.4971385138156129e-01
    x[2,1]    allocateEach[1]  1
    x[2,1]    findWorstP[1,2]  -2.6491109610623453e-01
    x[2,1]    findWorstP[2,1]  2.9162248144220568e-02
    x[2,1]    findWorstP[2,3]  2.9162248144220568e-02
    x[2,1]    findWorstP[2,4]  2.9162248144220568e-02
    x[2,1]    findWorstP[2,5]  2.9162248144220568e-02
    x[2,1]    findWorstP[3,2]  -1.8589224225237996e-01
    x[2,1]    findWorstP[4,2]  -1.8962329558585625e-01
    x[2,1]    findWorstP[5,2]  -2.0236072610211930e-01
    x[2,2]    allocateEach[2]  1
    x[2,2]    findWorstP[1,2]  -4.3214044564483460e-02
    x[2,2]    findWorstP[2,1]  1.6988958892146463e-01
    x[2,2]    findWorstP[2,3]  1.6988958892146463e-01
    x[2,2]    findWorstP[2,4]  1.6988958892146463e-01
    x[2,2]    findWorstP[2,5]  1.6988958892146463e-01
    x[2,2]    findWorstP[3,2]  -2.2111099858213487e-01
    x[2,2]    findWorstP[4,2]  -2.2636930899006241e-01
    x[2,2]    findWorstP[5,2]  -6.9860502548511144e-02
    x[2,3]    allocateEach[3]  1
    x[2,3]    findWorstP[1,2]  -2.4440130542426292e-01
    x[2,3]    findWorstP[2,1]  2.5263551868255252e-01
    x[2,3]    findWorstP[2,3]  2.5263551868255252e-01
    x[2,3]    findWorstP[2,4]  2.5263551868255252e-01
    x[2,3]    findWorstP[2,5]  2.5263551868255252e-01
    x[2,3]    findWorstP[3,2]  -1.4867328337046790e-01
    x[2,3]    findWorstP[4,2]  -1.9789692627686617e-01
    x[2,3]    findWorstP[5,2]  -1.9864973620674239e-01
    x[2,4]    allocateEach[4]  1
    x[2,4]    findWorstP[1,2]  -2.0822079675894667e-01
    x[2,4]    findWorstP[2,1]  1.5694591728525978e-01
    x[2,4]    findWorstP[2,3]  1.5694591728525978e-01
    x[2,4]    findWorstP[2,4]  1.5694591728525978e-01
    x[2,4]    findWorstP[2,5]  1.5694591728525978e-01
    x[2,4]    findWorstP[3,2]  -5.8385659307271617e-02
    x[2,4]    findWorstP[4,2]  -7.6219089438409979e-02
    x[2,4]    findWorstP[5,2]  -2.0057229723687742e-01
    x[2,5]    allocateEach[5]  1
    x[2,5]    findWorstP[1,2]  -1.4179608372721135e-02
    x[2,5]    findWorstP[2,1]  1.4185016530472208e-01
    x[2,5]    findWorstP[2,3]  1.4185016530472208e-01
    x[2,5]    findWorstP[2,4]  1.4185016530472208e-01
    x[2,5]    findWorstP[2,5]  1.4185016530472208e-01
    x[2,5]    findWorstP[3,2]  -1.8338565930727160e-01
    x[2,5]    findWorstP[4,2]  -1.2500577767506357e-01
    x[2,5]    findWorstP[5,2]  -1.4971385138156129e-01
    x[3,1]    allocateEach[1]  1
    x[3,1]    findWorstP[1,3]  -2.6491109610623453e-01
    x[3,1]    findWorstP[2,3]  -2.9162248144220568e-02
    x[3,1]    findWorstP[3,1]  1.8589224225237996e-01
    x[3,1]    findWorstP[3,2]  1.8589224225237996e-01
    x[3,1]    findWorstP[3,4]  1.8589224225237996e-01
    x[3,1]    findWorstP[3,5]  1.8589224225237996e-01
    x[3,1]    findWorstP[4,3]  -1.8962329558585625e-01
    x[3,1]    findWorstP[5,3]  -2.0236072610211930e-01
    x[3,2]    allocateEach[2]  1
    x[3,2]    findWorstP[1,3]  -4.3214044564483460e-02
    x[3,2]    findWorstP[2,3]  -1.6988958892146463e-01
    x[3,2]    findWorstP[3,1]  2.2111099858213487e-01
    x[3,2]    findWorstP[3,2]  2.2111099858213487e-01
    x[3,2]    findWorstP[3,4]  2.2111099858213487e-01
    x[3,2]    findWorstP[3,5]  2.2111099858213487e-01
    x[3,2]    findWorstP[4,3]  -2.2636930899006241e-01
    x[3,2]    findWorstP[5,3]  -6.9860502548511144e-02
    x[3,3]    allocateEach[3]  1
    x[3,3]    findWorstP[1,3]  -2.4440130542426292e-01
    x[3,3]    findWorstP[2,3]  -2.5263551868255252e-01
    x[3,3]    findWorstP[3,1]  1.4867328337046790e-01
    x[3,3]    findWorstP[3,2]  1.4867328337046790e-01
    x[3,3]    findWorstP[3,4]  1.4867328337046790e-01
    x[3,3]    findWorstP[3,5]  1.4867328337046790e-01
    x[3,3]    findWorstP[4,3]  -1.9789692627686617e-01
    x[3,3]    findWorstP[5,3]  -1.9864973620674239e-01
    x[3,4]    allocateEach[4]  1
    x[3,4]    findWorstP[1,3]  -2.0822079675894667e-01
    x[3,4]    findWorstP[2,3]  -1.5694591728525978e-01
    x[3,4]    findWorstP[3,1]  5.8385659307271617e-02
    x[3,4]    findWorstP[3,2]  5.8385659307271617e-02
    x[3,4]    findWorstP[3,4]  5.8385659307271617e-02
    x[3,4]    findWorstP[3,5]  5.8385659307271617e-02
    x[3,4]    findWorstP[4,3]  -7.6219089438409979e-02
    x[3,4]    findWorstP[5,3]  -2.0057229723687742e-01
    x[3,5]    allocateEach[5]  1
    x[3,5]    findWorstP[1,3]  -1.4179608372721135e-02
    x[3,5]    findWorstP[2,3]  -1.4185016530472208e-01
    x[3,5]    findWorstP[3,1]  1.8338565930727160e-01
    x[3,5]    findWorstP[3,2]  1.8338565930727160e-01
    x[3,5]    findWorstP[3,4]  1.8338565930727160e-01
    x[3,5]    findWorstP[3,5]  1.8338565930727160e-01
    x[3,5]    findWorstP[4,3]  -1.2500577767506357e-01
    x[3,5]    findWorstP[5,3]  -1.4971385138156129e-01
    x[4,1]    allocateEach[1]  1
    x[4,1]    findWorstP[1,4]  -2.6491109610623453e-01
    x[4,1]    findWorstP[2,4]  -2.9162248144220568e-02
    x[4,1]    findWorstP[3,4]  -1.8589224225237996e-01
    x[4,1]    findWorstP[4,1]  1.8962329558585625e-01
    x[4,1]    findWorstP[4,2]  1.8962329558585625e-01
    x[4,1]    findWorstP[4,3]  1.8962329558585625e-01
    x[4,1]    findWorstP[4,5]  1.8962329558585625e-01
    x[4,1]    findWorstP[5,4]  -2.0236072610211930e-01
    x[4,2]    allocateEach[2]  1
    x[4,2]    findWorstP[1,4]  -4.3214044564483460e-02
    x[4,2]    findWorstP[2,4]  -1.6988958892146463e-01
    x[4,2]    findWorstP[3,4]  -2.2111099858213487e-01
    x[4,2]    findWorstP[4,1]  2.2636930899006241e-01
    x[4,2]    findWorstP[4,2]  2.2636930899006241e-01
    x[4,2]    findWorstP[4,3]  2.2636930899006241e-01
    x[4,2]    findWorstP[4,5]  2.2636930899006241e-01
    x[4,2]    findWorstP[5,4]  -6.9860502548511144e-02
    x[4,3]    allocateEach[3]  1
    x[4,3]    findWorstP[1,4]  -2.4440130542426292e-01
    x[4,3]    findWorstP[2,4]  -2.5263551868255252e-01
    x[4,3]    findWorstP[3,4]  -1.4867328337046790e-01
    x[4,3]    findWorstP[4,1]  1.9789692627686617e-01
    x[4,3]    findWorstP[4,2]  1.9789692627686617e-01
    x[4,3]    findWorstP[4,3]  1.9789692627686617e-01
    x[4,3]    findWorstP[4,5]  1.9789692627686617e-01
    x[4,3]    findWorstP[5,4]  -1.9864973620674239e-01
    x[4,4]    allocateEach[4]  1
    x[4,4]    findWorstP[1,4]  -2.0822079675894667e-01
    x[4,4]    findWorstP[2,4]  -1.5694591728525978e-01
    x[4,4]    findWorstP[3,4]  -5.8385659307271617e-02
    x[4,4]    findWorstP[4,1]  7.6219089438409979e-02
    x[4,4]    findWorstP[4,2]  7.6219089438409979e-02
    x[4,4]    findWorstP[4,3]  7.6219089438409979e-02
    x[4,4]    findWorstP[4,5]  7.6219089438409979e-02
    x[4,4]    findWorstP[5,4]  -2.0057229723687742e-01
    x[4,5]    allocateEach[5]  1
    x[4,5]    findWorstP[1,4]  -1.4179608372721135e-02
    x[4,5]    findWorstP[2,4]  -1.4185016530472208e-01
    x[4,5]    findWorstP[3,4]  -1.8338565930727160e-01
    x[4,5]    findWorstP[4,1]  1.2500577767506357e-01
    x[4,5]    findWorstP[4,2]  1.2500577767506357e-01
    x[4,5]    findWorstP[4,3]  1.2500577767506357e-01
    x[4,5]    findWorstP[4,5]  1.2500577767506357e-01
    x[4,5]    findWorstP[5,4]  -1.4971385138156129e-01
    x[5,1]    allocateEach[1]  1
    x[5,1]    findWorstP[1,5]  -2.6491109610623453e-01
    x[5,1]    findWorstP[2,5]  -2.9162248144220568e-02
    x[5,1]    findWorstP[3,5]  -1.8589224225237996e-01
    x[5,1]    findWorstP[4,5]  -1.8962329558585625e-01
    x[5,1]    findWorstP[5,1]  2.0236072610211930e-01
    x[5,1]    findWorstP[5,2]  2.0236072610211930e-01
    x[5,1]    findWorstP[5,3]  2.0236072610211930e-01
    x[5,1]    findWorstP[5,4]  2.0236072610211930e-01
    x[5,2]    allocateEach[2]  1
    x[5,2]    findWorstP[1,5]  -4.3214044564483460e-02
    x[5,2]    findWorstP[2,5]  -1.6988958892146463e-01
    x[5,2]    findWorstP[3,5]  -2.2111099858213487e-01
    x[5,2]    findWorstP[4,5]  -2.2636930899006241e-01
    x[5,2]    findWorstP[5,1]  6.9860502548511144e-02
    x[5,2]    findWorstP[5,2]  6.9860502548511144e-02
    x[5,2]    findWorstP[5,3]  6.9860502548511144e-02
    x[5,2]    findWorstP[5,4]  6.9860502548511144e-02
    x[5,3]    allocateEach[3]  1
    x[5,3]    findWorstP[1,5]  -2.4440130542426292e-01
    x[5,3]    findWorstP[2,5]  -2.5263551868255252e-01
    x[5,3]    findWorstP[3,5]  -1.4867328337046790e-01
    x[5,3]    findWorstP[4,5]  -1.9789692627686617e-01
    x[5,3]    findWorstP[5,1]  1.9864973620674239e-01
    x[5,3]    findWorstP[5,2]  1.9864973620674239e-01
    x[5,3]    findWorstP[5,3]  1.9864973620674239e-01
    x[5,3]    findWorstP[5,4]  1.9864973620674239e-01
    x[5,4]    allocateEach[4]  1
    x[5,4]    findWorstP[1,5]  -2.0822079675894667e-01
    x[5,4]    findWorstP[2,5]  -1.5694591728525978e-01
    x[5,4]    findWorstP[3,5]  -5.8385659307271617e-02
    x[5,4]    findWorstP[4,5]  -7.6219089438409979e-02
    x[5,4]    findWorstP[5,1]  2.0057229723687742e-01
    x[5,4]    findWorstP[5,2]  2.0057229723687742e-01
    x[5,4]    findWorstP[5,3]  2.0057229723687742e-01
    x[5,4]    findWorstP[5,4]  2.0057229723687742e-01
    x[5,5]    allocateEach[5]  1
    x[5,5]    findWorstP[1,5]  -1.4179608372721135e-02
    x[5,5]    findWorstP[2,5]  -1.4185016530472208e-01
    x[5,5]    findWorstP[3,5]  -1.8338565930727160e-01
    x[5,5]    findWorstP[4,5]  -1.2500577767506357e-01
    x[5,5]    findWorstP[5,1]  1.4971385138156129e-01
    x[5,5]    findWorstP[5,2]  1.4971385138156129e-01
    x[5,5]    findWorstP[5,3]  1.4971385138156129e-01
    x[5,5]    findWorstP[5,4]  1.4971385138156129e-01
    MARKER    'MARKER'                 'INTEND'
RHS
    RHS1      allocateEach[1]  1
    RHS1      allocateEach[2]  1
    RHS1      allocateEach[3]  1
    RHS1      allocateEach[4]  1
    RHS1      allocateEach[5]  1
    RHS1      allocateAllCash  1
BOUNDS
 UP BND1      z         1
 MI BND1      cashProportion[1]
 UP BND1      cashProportion[1]  1
 MI BND1      cashProportion[2]
 UP BND1      cashProportion[2]  1
 MI BND1      cashProportion[3]
 UP BND1      cashProportion[3]  1
 MI BND1      cashProportion[4]
 UP BND1      cashProportion[4]  1
 MI BND1      cashProportion[5]
 UP BND1      cashProportion[5]  1
 BV BND1      x[1,1]  
 BV BND1      x[1,2]  
 BV BND1      x[1,3]  
 BV BND1      x[1,4]  
 BV BND1      x[1,5]  
 BV BND1      x[2,1]  
 BV BND1      x[2,2]  
 BV BND1      x[2,3]  
 BV BND1      x[2,4]  
 BV BND1      x[2,5]  
 BV BND1      x[3,1]  
 BV BND1      x[3,2]  
 BV BND1      x[3,3]  
 BV BND1      x[3,4]  
 BV BND1      x[3,5]  
 BV BND1      x[4,1]  
 BV BND1      x[4,2]  
 BV BND1      x[4,3]  
 BV BND1      x[4,4]  
 BV BND1      x[4,5]  
 BV BND1      x[5,1]  
 BV BND1      x[5,2]  
 BV BND1      x[5,3]  
 BV BND1      x[5,4]  
 BV BND1      x[5,5]  
ENDATA
